N = 9;
H = 5;
T = 2;

avail = array3d(1..N, 1..H, 1..T, [9, 4, 10, 1, 10, 7, 10, 5, 6, 10, 8, 2, 10, 10, 9, 0, 8, 10, 3, 9, 4, 5, 5, 4, 6, 7, 0, 4, 2, 9, 3, 0, 2, 0, 5, 3, 4, 7, 9, 5, 4, 6, 5, 6, 0, 0, 3, 2, 3, 5, 8, 2, 8, 1, 4, 8, 5, 1, 1, 0, 9, 2, 0, 6, 3, 9, 10, 9, 0, 10, 4, 6, 10, 1, 2, 3, 9, 1, 8, 6, 4, 6, 3, 0, 7, 8, 1, 0, 3, 10]);

r = array2d(1..H, 1..T, [2, 2, 4, 3, 2, 2, 1, 2, 2, 2]);
